\ Model ajuste
\ LP format - for model browsing. Use MPS format to capture full model detail.
Minimize
  - 2.1296727431334451e+07 coef_ajuste + 1.0430598283693958e+07 Constant + [
   2.1741351116626937e+07 coef_ajuste ^2 ] / 2 
Subject To
Bounds
 coef_ajuste <= 1
 Constant = 1
End
